\* Problem: Unknown *\

Maximize
 obj: + xp_0_0 + xp_1_0 + xp_1_1 + xp_2_0 + xp_2_1 + xp_3_0 + xp_3_1
 + xp_4_0 + xp_5_0 + xp_6_0 + xp_7_0 + xp_8_0 + xp_9_0 + xp_9_1
 + xp_10_0 + xp_11_0 + xp_11_1 + xp_12_0 + xp_12_1 + xp_13_0 + xp_13_1
 + xp_14_0 + xp_14_1 + xp_15_0 + xp_16_0 + xp_17_0 + xp_17_1 + xp_18_0
 + xp_18_1 + xp_18_2 + xp_19_0 + xp_19_1 + xp_20_0 + xp_21_0 + xp_22_0
 + xp_22_1 + xp_23_0 + xp_24_0 + xp_24_1 + xp_24_2 + xp_24_3 + xp_25_0
 + xp_26_0 + xp_26_1 + xp_26_2 + xp_27_0 + xp_27_1 + xp_28_0 + xp_28_1
 + xp_29_0 + xp_30_0 + xp_30_1 + xp_30_2 + xp_31_0 + xp_32_0 + xp_32_1
 + xp_33_0 + xp_34_0 + xp_34_1 + xp_35_0 + xp_36_0 + xp_37_0 + xp_38_0
 + xp_38_1 + xp_39_0 + xp_40_0 + xp_40_1 + xp_40_2 + xp_41_0 + xp_41_1
 + xp_42_0 + xp_42_1 + xp_43_0 + xp_44_0 + xp_45_0 + xp_45_1 + xp_46_0
 + xp_47_0 + xp_48_0 + xp_48_1 + xp_49_0 + xp_50_0 + xp_50_1 + xp_51_0
 + xp_52_0 + xp_53_0 + xp_53_1 + xp_54_0 + xp_55_0 + xp_56_0 + xp_57_0
 + xp_58_0 + xp_58_1 + xp_59_0 + xp_60_0 + xp_60_1 + xp_61_0 + xp_61_1
 + xp_62_0 + xp_63_0 + xp_63_1 + xp_64_0 + xp_65_0 + xp_66_0 + xp_67_0
 + xp_68_0 + xp_68_1 + xp_68_2 + xp_69_0 + xp_70_0 + xp_71_0 + xp_72_0
 + xp_73_0 + xp_74_0 + xp_75_0 + xp_76_0 + xp_77_0 + xp_77_1 + xp_77_2
 + xp_78_0 + xp_78_1 + xp_78_2 + xp_78_3 + xp_79_0 + xp_79_1 + xp_79_2
 + xp_80_0 + xp_80_1 + xp_81_0 + xp_81_1 + xp_82_0 + xp_82_1 + xp_82_2
 + xp_83_0 + xp_83_1 + xp_84_0 + xp_85_0 + xp_85_1 + xp_85_2 + xp_86_0
 + xp_86_1 + xp_87_0 + xp_88_0 + xp_88_1 + xp_89_0 + xp_90_0 + xp_90_1
 + xp_90_2 + xp_91_0 + xp_91_1 + xp_91_2 + xp_92_0 + xp_92_1 + xp_92_2
 + xp_93_0 + xp_94_0 + xp_94_1 + xp_95_0 + xp_95_1 + xp_95_2 + xp_96_0
 + xp_96_1 + xp_97_0 + xp_98_0 + xp_98_1 + xp_98_2 + xp_98_3 + xp_99_0
 + xp_99_1 + xp_99_2 + xp_100_0 + xp_101_0 + xp_102_0 + xp_103_0
 + xp_104_0 + xp_104_1 + xp_105_0 + xp_105_1 + xp_106_0 + xp_106_1
 + xp_107_0 + xp_108_0 + xp_108_1 + xp_109_0 + xp_109_1 + xp_110_0
 + xp_111_0 + xp_111_1 + xp_112_0 + xp_112_1 + xp_113_0 + xp_114_0
 + xp_115_0 + xp_115_1 + xp_116_0 + xp_116_1 + xp_117_0 + xp_118_0
 + xp_119_0 + xp_119_1 + xp_119_2 + xp_120_0 + xp_120_1 + xp_121_0
 + xp_122_0 + xp_123_0 + xp_124_0 + xp_125_0 + xp_125_1 + xp_126_0
 + xp_126_1 + xp_126_2 + xp_127_0 + xp_127_1 + xp_128_0 + xp_128_1
 + xp_129_0 + xp_129_1 + xp_130_0 + xp_131_0 + xp_131_1 + xp_131_2

Subject To
 r_1: + xp_128_1 + xp_122_0 + xp_121_0 + xp_108_1 + xp_107_0 + xp_78_2
 + xp_40_2 + xp_40_1 + xp_25_0 + xp_22_1 + xp_18_2 + xp_18_1 + xp_16_0
 + xp_13_1 + xp_4_0 <= 38172.0430107527
 r_2: + xp_131_2 + xp_131_0 + xp_127_0 + xp_126_1 + xp_120_0 + xp_93_0
 + xp_90_2 + xp_85_2 + xp_85_1 + xp_85_0 + xp_77_2 + xp_77_1 + xp_75_0
 + xp_71_0 + xp_66_0 + xp_65_0 + xp_61_1 + xp_55_0 + xp_52_0 + xp_48_1
 + xp_48_0 + xp_42_1 + xp_38_1 + xp_32_0 + xp_28_1 + xp_28_0 + xp_24_3
 + xp_24_1 + xp_24_0 + xp_19_1 + xp_19_0 + xp_12_1 + xp_1_1
 <= 34953.0251785043
 r_3: + xp_114_0 + xp_105_1 + xp_98_3 + xp_95_1 + xp_94_1 + xp_92_2
 + xp_91_1 + xp_85_2 + xp_83_1 + xp_79_1 + xp_76_0 + xp_68_2 + xp_41_1
 + xp_40_1 + xp_34_0 + xp_30_2 + xp_26_2 + xp_24_3 <= 37263.8208537439
 r_4: + xp_119_2 + xp_117_0 + xp_104_1 + xp_95_2 + xp_95_0 + xp_91_2
 + xp_91_0 + xp_88_1 + xp_84_0 + xp_82_2 + xp_79_2 + xp_79_0 + xp_46_0
 + xp_43_0 + xp_40_2 + xp_40_0 + xp_34_1 + xp_27_1 + xp_18_2
 <= 35723.2704402516
 r_5: + xp_130_0 + xp_119_2 + xp_104_1 + xp_99_0 + xp_88_1 + xp_82_2
 + xp_27_1 + xp_18_2 + xp_7_0 + xp_2_0 <= 37263.8208537439
 r_6: + xp_126_2 + xp_119_0 + xp_114_0 + xp_95_1 + xp_92_2 + xp_92_1
 + xp_91_1 + xp_83_1 + xp_83_0 + xp_82_1 + xp_81_0 + xp_79_1 + xp_70_0
 + xp_68_2 + xp_68_1 + xp_58_1 + xp_53_0 + xp_48_1 + xp_45_0 + xp_40_1
 + xp_34_0 + xp_32_1 + xp_30_2 + xp_30_1 + xp_18_1 <= 38762.5113739763
 r_7: + xp_119_1 + xp_112_1 + xp_111_1 + xp_104_0 + xp_88_0 + xp_82_0
 + xp_81_1 + xp_78_1 + xp_53_1 + xp_50_1 + xp_45_1 + xp_44_0 + xp_27_0
 + xp_18_0 + xp_3_1 <= 35723.2704402516
 r_8: + xp_131_2 + xp_131_0 + xp_127_0 + xp_126_1 + xp_120_0 + xp_118_0
 + xp_103_0 + xp_90_2 + xp_77_2 + xp_77_1 + xp_71_0 + xp_61_1 + xp_55_0
 + xp_42_1 + xp_38_1 + xp_32_0 + xp_24_3 + xp_24_1 + xp_24_0 + xp_12_1
 + xp_1_1 <= 38172.0430107527
 r_9: + xp_131_1 + xp_127_1 + xp_122_0 + xp_120_1 + xp_108_1 + xp_78_2
 + xp_77_0 + xp_42_0 + xp_33_0 + xp_32_1 + xp_24_2 <= 40000
 r_10: + xp_112_1 + xp_111_1 + xp_106_0 + xp_99_0 + xp_98_0 + xp_88_1
 + xp_88_0 + xp_85_0 + xp_78_1 + xp_50_1 + xp_26_0 + xp_24_0 + xp_8_0
 + xp_7_0 + xp_3_1 + xp_2_0 <= 38762.5113739763
 r_11: + xp_119_0 + xp_112_0 + xp_111_0 + xp_95_1 + xp_91_1 + xp_82_1
 + xp_81_0 + xp_79_1 + xp_78_3 + xp_78_2 + xp_78_0 + xp_59_0 + xp_53_0
 + xp_50_0 + xp_49_0 + xp_45_0 + xp_40_1 + xp_34_0 + xp_18_1 + xp_4_0
 + xp_3_0 <= 36277.3722627737
 r_12: + xp_129_1 + xp_128_0 + xp_123_0 + xp_119_1 + xp_117_0 + xp_112_1
 + xp_111_1 + xp_101_0 + xp_95_0 + xp_91_2 + xp_82_2 + xp_82_0 + xp_81_1
 + xp_80_1 + xp_79_2 + xp_78_1 + xp_78_0 + xp_73_0 + xp_63_1 + xp_60_1
 + xp_50_1 + xp_46_0 + xp_45_1 + xp_44_0 + xp_40_0 + xp_18_0 + xp_17_1
 + xp_15_0 + xp_14_0 + xp_13_0 + xp_9_0 <= 35837.0814592704
 r_13: + xp_129_0 + xp_128_1 + xp_120_1 + xp_119_2 + xp_109_1 + xp_100_0
 + xp_96_1 + xp_95_2 + xp_91_0 + xp_90_0 + xp_80_0 + xp_79_0 + xp_68_0
 + xp_63_0 + xp_60_0 + xp_53_1 + xp_40_2 + xp_34_1 + xp_31_0 + xp_30_0
 + xp_18_2 + xp_17_0 + xp_13_1 + xp_9_1 <= 36277.3722627737
 r_14: + xp_131_2 + xp_131_1 + xp_131_0 + xp_126_2 + xp_125_1 + xp_125_0
 + xp_124_0 + xp_115_1 + xp_115_0 + xp_106_1 + xp_99_2 + xp_99_1
 + xp_98_3 + xp_98_2 + xp_98_1 + xp_94_1 + xp_94_0 + xp_92_2 + xp_92_1
 + xp_86_1 + xp_86_0 + xp_85_2 + xp_85_1 + xp_77_2 + xp_77_1 + xp_77_0
 + xp_68_2 + xp_68_1 + xp_65_0 + xp_58_1 + xp_56_0 + xp_51_0 + xp_48_1
 + xp_41_1 + xp_41_0 + xp_38_1 + xp_38_0 + xp_35_0 + xp_32_1 + xp_30_2
 + xp_30_1 + xp_26_2 + xp_26_1 + xp_24_3 + xp_24_2 + xp_24_1 + xp_20_0
 + xp_19_1 + xp_19_0 + xp_12_1 + xp_12_0 + xp_2_1 + xp_0_0
 <= 35723.2704402516
 r_15: + xp_131_1 + xp_131_0 + xp_126_2 + xp_125_0 + xp_124_0 + xp_120_1
 + xp_116_0 + xp_115_0 + xp_109_1 + xp_99_1 + xp_98_3 + xp_98_1
 + xp_96_1 + xp_94_1 + xp_94_0 + xp_92_2 + xp_92_1 + xp_90_0 + xp_89_0
 + xp_86_0 + xp_85_2 + xp_85_1 + xp_77_2 + xp_77_0 + xp_68_2 + xp_68_1
 + xp_68_0 + xp_65_0 + xp_58_1 + xp_51_0 + xp_48_1 + xp_42_1 + xp_42_0
 + xp_38_1 + xp_38_0 + xp_36_0 + xp_32_1 + xp_28_0 + xp_26_1 + xp_24_3
 + xp_24_2 + xp_24_1 + xp_19_1 + xp_12_0 + xp_11_1 + xp_0_0
 <= 35837.0814592704
 r_16: + xp_128_0 + xp_123_0 + xp_108_0 + xp_78_3 + xp_78_1 + xp_78_0
 + xp_73_0 + xp_67_0 + xp_57_0 + xp_46_0 + xp_44_0 + xp_40_0 + xp_22_0
 + xp_18_0 + xp_13_0 + xp_6_0 <= 35837.0814592704
 r_17: + xp_129_1 + xp_126_0 + xp_119_1 + xp_112_1 + xp_111_1 + xp_109_0
 + xp_97_0 + xp_95_0 + xp_91_2 + xp_90_1 + xp_81_1 + xp_80_1 + xp_79_2
 + xp_63_1 + xp_62_0 + xp_61_0 + xp_60_1 + xp_47_0 + xp_45_1 + xp_22_1
 + xp_17_1 + xp_9_0 + xp_1_0 <= 34953.0251785043
 r_18: + xp_126_1 + xp_126_0 + xp_106_0 + xp_99_0 + xp_98_0 + xp_92_0
 + xp_85_0 + xp_68_0 + xp_58_0 + xp_48_0 + xp_32_0 + xp_30_0 + xp_26_0
 + xp_24_0 + xp_5_0 + xp_2_0 <= 36277.3722627737
 r_19: + xp_131_2 + xp_125_1 + xp_116_1 + xp_115_1 + xp_110_0 + xp_106_1
 + xp_99_2 + xp_98_2 + xp_86_1 + xp_78_0 + xp_77_1 + xp_56_0 + xp_28_1
 + xp_26_2 + xp_19_0 + xp_14_0 + xp_12_1 + xp_11_0 + xp_3_0 + xp_2_1
 <= 36277.3722627737
 r_20: + xp_129_0 + xp_128_1 + xp_119_2 + xp_119_0 + xp_112_0 + xp_111_0
 + xp_108_1 + xp_108_0 + xp_107_0 + xp_95_2 + xp_95_1 + xp_91_1
 + xp_91_0 + xp_82_1 + xp_81_0 + xp_80_0 + xp_79_1 + xp_79_0 + xp_78_3
 + xp_78_2 + xp_69_0 + xp_64_0 + xp_63_0 + xp_60_0 + xp_50_0 + xp_49_0
 + xp_45_0 + xp_40_2 + xp_40_1 + xp_18_2 + xp_18_1 + xp_17_0 + xp_14_1
 + xp_13_1 + xp_10_0 + xp_9_1 + xp_4_0 <= 34953.0251785043
 r_21: + xp_113_0 + xp_105_1 + xp_99_2 + xp_99_1 + xp_98_3 + xp_94_1
 + xp_92_2 + xp_86_1 + xp_86_0 + xp_85_2 + xp_83_1 + xp_77_2 + xp_77_1
 + xp_77_0 + xp_68_2 + xp_65_0 + xp_41_1 + xp_38_1 + xp_38_0 + xp_30_2
 + xp_26_2 + xp_24_3 + xp_20_0 + xp_2_1 + xp_0_0 <= 35723.2704402516
 r_22: + xp_126_2 + xp_124_0 + xp_106_1 + xp_105_0 + xp_98_2 + xp_98_1
 + xp_94_0 + xp_92_1 + xp_85_1 + xp_83_0 + xp_68_1 + xp_58_1 + xp_48_1
 + xp_41_0 + xp_32_1 + xp_30_1 + xp_26_1 + xp_24_2 + xp_24_1
 <= 35723.2704402516
 r_23: + xp_128_1 + xp_128_0 + xp_119_2 + xp_119_1 + xp_117_0 + xp_112_1
 + xp_111_1 + xp_104_1 + xp_104_0 + xp_100_0 + xp_95_2 + xp_95_0
 + xp_91_2 + xp_91_0 + xp_84_0 + xp_82_2 + xp_82_0 + xp_81_1 + xp_80_1
 + xp_80_0 + xp_79_2 + xp_79_0 + xp_78_1 + xp_73_0 + xp_60_1 + xp_60_0
 + xp_53_1 + xp_50_1 + xp_46_0 + xp_45_1 + xp_44_0 + xp_40_2 + xp_40_0
 + xp_34_1 + xp_21_0 + xp_18_2 + xp_18_0 + xp_15_0 + xp_9_1 + xp_9_0
 + xp_3_1 <= 35723.2704402516
 r_24: + xp_128_0 + xp_126_1 + xp_103_0 + xp_90_2 + xp_61_1 + xp_40_0
 + xp_39_0 + xp_38_1 + xp_22_0 + xp_18_0 + xp_13_0 + xp_12_1 + xp_1_1
 <= 40000
 r_25: + xp_131_1 + xp_127_1 + xp_126_2 + xp_126_0 + xp_120_1 + xp_94_1
 + xp_94_0 + xp_90_1 + xp_90_0 + xp_89_0 + xp_77_0 + xp_74_0 + xp_61_0
 + xp_42_0 + xp_38_0 + xp_32_1 + xp_24_2 + xp_12_0 + xp_1_0
 <= 35837.0814592704
 r_26: + xp_128_1 + xp_121_0 + xp_112_1 + xp_112_0 + xp_108_1 + xp_107_0
 + xp_81_1 + xp_81_0 + xp_79_2 + xp_79_1 + xp_79_0 + xp_78_2 + xp_64_0
 + xp_60_1 + xp_60_0 + xp_47_0 + xp_40_2 + xp_40_1 + xp_37_0 + xp_29_0
 + xp_25_0 + xp_22_1 + xp_18_2 + xp_18_1 + xp_17_1 + xp_17_0 + xp_13_1
 + xp_4_0 <= 34953.0251785043
 r_27: + xp_131_0 + xp_127_0 + xp_125_0 + xp_116_0 + xp_115_0 + xp_108_0
 + xp_99_1 + xp_98_3 + xp_98_1 + xp_96_1 + xp_92_2 + xp_92_1 + xp_86_0
 + xp_85_2 + xp_85_1 + xp_82_1 + xp_78_3 + xp_77_2 + xp_72_0 + xp_67_0
 + xp_65_0 + xp_58_1 + xp_57_0 + xp_52_0 + xp_50_0 + xp_48_1 + xp_42_1
 + xp_38_1 + xp_28_0 + xp_26_1 + xp_24_3 + xp_24_1 + xp_23_0 + xp_19_1
 + xp_14_1 + xp_11_1 <= 34953.0251785043
 r_28: + xp_131_2 + xp_126_1 + xp_126_0 + xp_125_1 + xp_120_0 + xp_116_1
 + xp_115_1 + xp_109_0 + xp_99_2 + xp_99_0 + xp_98_2 + xp_98_0 + xp_96_0
 + xp_92_0 + xp_90_2 + xp_90_1 + xp_86_1 + xp_85_0 + xp_77_1 + xp_75_0
 + xp_58_0 + xp_54_0 + xp_48_0 + xp_32_0 + xp_28_1 + xp_26_2 + xp_26_0
 + xp_24_0 + xp_19_0 + xp_12_1 + xp_11_0 <= 34953.0251785043
 r_29: + xp_129_1 + xp_129_0 + xp_95_2 + xp_95_1 + xp_95_0 + xp_93_0
 + xp_87_0 + xp_71_0 + xp_62_0 + xp_49_0 + xp_45_1 + xp_45_0 + xp_10_0
 + xp_9_1 + xp_9_0 + xp_1_1 + xp_1_0 <= 34953.0251785043
 r_30: + xp_125_1 + xp_125_0 + xp_121_0 + xp_102_0 + xp_99_2 + xp_99_1
 + xp_99_0 + xp_96_1 + xp_96_0 + xp_92_2 + xp_92_1 + xp_92_0 + xp_57_0
 + xp_37_0 + xp_26_2 + xp_26_1 + xp_26_0 + xp_23_0 + xp_11_1 + xp_11_0
 <= 34953.0251785043

Bounds
 0 <= xp_0_0 <= 224.281477012558
 0 <= xp_1_0 <= 104.121735976221
 0 <= xp_1_1 <= 69.4144906508141
 0 <= xp_2_0 <= 21.8643115858611
 0 <= xp_2_1 <= 87.4572463434445
 0 <= xp_3_0 <= 103.971379678783
 0 <= xp_3_1 <= 69.3142531191884
 0 <= xp_4_0 <= 749.839385017684
 0 <= xp_5_0 <= 1029.75269208252
 0 <= xp_6_0 <= 1703.22360769285
 0 <= xp_7_0 <= 606.687660164696
 0 <= xp_8_0 <= 1435.02556213678
 0 <= xp_9_0 <= 41.1475067323598
 0 <= xp_9_1 <= 61.7212600985398
 0 <= xp_10_0 <= 52.1235164453767
 0 <= xp_11_0 <= 15.7874112310516
 0 <= xp_11_1 <= 23.6811168465774
 0 <= xp_12_0 <= 1571.8748521888
 0 <= xp_12_1 <= 392.968713047199
 0 <= xp_13_0 <= 143.703031276929
 0 <= xp_13_1 <= 95.802020851286
 0 <= xp_14_0 <= 41.8115803793803
 0 <= xp_14_1 <= 167.246321517521
 0 <= xp_15_0 <= 482.017230205202
 0 <= xp_16_0 <= 2510.26103419447
 0 <= xp_17_0 <= 225.88527751857
 0 <= xp_17_1 <= 56.4713193796424
 0 <= xp_18_0 <= 204.747688036995
 0 <= xp_18_1 <= 68.2492293456651
 0 <= xp_18_2 <= 68.2492293456651
 0 <= xp_19_0 <= 402.503808243096
 0 <= xp_19_1 <= 603.755712364644
 0 <= xp_20_0 <= 121.913897839787
 0 <= xp_21_0 <= 260.930824513214
 0 <= xp_22_0 <= 936.970326871458
 0 <= xp_22_1 <= 234.242581717865
 0 <= xp_23_0 <= 49.4296327829353
 0 <= xp_24_0 <= 64.7659751216711
 0 <= xp_24_1 <= 64.7659751216711
 0 <= xp_24_2 <= 129.531950243342
 0 <= xp_24_3 <= 64.7659751216711
 0 <= xp_25_0 <= 550.241400167961
 0 <= xp_26_0 <= 2.91941810859922
 0 <= xp_26_1 <= 8.75825432579766
 0 <= xp_26_2 <= 2.91941810859922
 0 <= xp_27_0 <= 257.009031088357
 0 <= xp_27_1 <= 64.2522577720893
 0 <= xp_28_0 <= 507.703097684294
 0 <= xp_28_1 <= 126.925774421073
 0 <= xp_29_0 <= 2327.39018743479
 0 <= xp_30_0 <= 34.8701313142989
 0 <= xp_30_1 <= 104.610393942897
 0 <= xp_30_2 <= 34.8701313142989
 0 <= xp_31_0 <= 181.241986870763
 0 <= xp_32_0 <= 1284.30590364605
 0 <= xp_32_1 <= 856.203935764031
 0 <= xp_33_0 <= 7663.59783198749
 0 <= xp_34_0 <= 97.1552275282333
 0 <= xp_34_1 <= 388.620910112933
 0 <= xp_35_0 <= 248.2131876882
 0 <= xp_36_0 <= 303.281181625082
 0 <= xp_37_0 <= 346.947156339538
 0 <= xp_38_0 <= 254.703567860966
 0 <= xp_38_1 <= 63.6758919652414
 0 <= xp_39_0 <= 1496.17045642847
 0 <= xp_40_0 <= 484.485579421485
 0 <= xp_40_1 <= 161.495193140495
 0 <= xp_40_2 <= 161.495193140495
 0 <= xp_41_0 <= 60.7940629310018
 0 <= xp_41_1 <= 15.1985157327505
 0 <= xp_42_0 <= 172.759385756936
 0 <= xp_42_1 <= 259.139078635404
 0 <= xp_43_0 <= 467.921327320334
 0 <= xp_44_0 <= 436.095911029167
 0 <= xp_45_0 <= 32.376722715109
 0 <= xp_45_1 <= 8.09418067877724
 0 <= xp_46_0 <= 1526.80555203158
 0 <= xp_47_0 <= 835.855716844009
 0 <= xp_48_0 <= 2211.18982889767
 0 <= xp_48_1 <= 552.797457224416
 0 <= xp_49_0 <= 83.7609873647459
 0 <= xp_50_0 <= 596.714025767937
 0 <= xp_50_1 <= 149.178506441984
 0 <= xp_51_0 <= 674.786533212923
 0 <= xp_52_0 <= 629.930237810411
 0 <= xp_53_0 <= 144.492401838482
 0 <= xp_53_1 <= 36.1231004596204
 0 <= xp_54_0 <= 3512.51105353718
 0 <= xp_55_0 <= 1127.108394674
 0 <= xp_56_0 <= 91.090856864877
 0 <= xp_57_0 <= 195.964374328291
 0 <= xp_58_0 <= 2594.24755600537
 0 <= xp_58_1 <= 1729.49837067025
 0 <= xp_59_0 <= 10122.8003735101
 0 <= xp_60_0 <= 515.722100214352
 0 <= xp_60_1 <= 128.930525053588
 0 <= xp_61_0 <= 1380.90982475034
 0 <= xp_61_1 <= 920.606549833559
 0 <= xp_62_0 <= 124.795726874027
 0 <= xp_63_0 <= 100.287650391537
 0 <= xp_63_1 <= 25.0719125978843
 0 <= xp_64_0 <= 945.678462431443
 0 <= xp_65_0 <= 496.802266119996
 0 <= xp_66_0 <= 1597.72360565678
 0 <= xp_67_0 <= 384.786824528249
 0 <= xp_68_0 <= 280.239079042619
 0 <= xp_68_1 <= 840.717237127856
 0 <= xp_68_2 <= 280.239079042619
 0 <= xp_69_0 <= 1634.4356016147
 0 <= xp_70_0 <= 600.736056724419
 0 <= xp_71_0 <= 67.4097400182996
 0 <= xp_72_0 <= 569.725070377711
 0 <= xp_73_0 <= 877.830183212281
 0 <= xp_74_0 <= 906.585825097411
 0 <= xp_75_0 <= 1677.66303712829
 0 <= xp_76_0 <= 1637.81861830707
 0 <= xp_77_0 <= 326.498699887891
 0 <= xp_77_1 <= 108.83289996263
 0 <= xp_77_2 <= 108.83289996263
 0 <= xp_78_0 <= 5324.73044718156
 0 <= xp_78_1 <= 10649.4608943631
 0 <= xp_78_2 <= 5324.73044718156
 0 <= xp_78_3 <= 5324.73044718156
 0 <= xp_79_0 <= 405.410696660242
 0 <= xp_79_1 <= 202.705348330121
 0 <= xp_79_2 <= 405.410696660242
 0 <= xp_80_0 <= 128.70499060743
 0 <= xp_80_1 <= 85.80332707162
 0 <= xp_81_0 <= 148.92791261292
 0 <= xp_81_1 <= 99.28527507528
 0 <= xp_82_0 <= 125.4723302125
 0 <= xp_82_1 <= 41.8241100708335
 0 <= xp_82_2 <= 41.8241100708335
 0 <= xp_83_0 <= 383.508796000021
 0 <= xp_83_1 <= 95.8771990000053
 0 <= xp_84_0 <= 846.819196865572
 0 <= xp_85_0 <= 77.7717948501089
 0 <= xp_85_1 <= 233.315384550327
 0 <= xp_85_2 <= 77.7717948501089
 0 <= xp_86_0 <= 130.509266176693
 0 <= xp_86_1 <= 32.6273165441733
 0 <= xp_87_0 <= 134.443589293003
 0 <= xp_88_0 <= 323.717108385277
 0 <= xp_88_1 <= 80.9292770963192
 0 <= xp_89_0 <= 2113.38305741387
 0 <= xp_90_0 <= 12392.1029113678
 0 <= xp_90_1 <= 4130.70097045593
 0 <= xp_90_2 <= 4130.70097045593
 0 <= xp_91_0 <= 1035.92982996895
 0 <= xp_91_1 <= 517.964914984477
 0 <= xp_91_2 <= 1035.92982996895
 0 <= xp_92_0 <= 38.190499549401
 0 <= xp_92_1 <= 12.730166516467
 0 <= xp_92_2 <= 12.730166516467
 0 <= xp_93_0 <= 124.169242301366
 0 <= xp_94_0 <= 180.52779445793
 0 <= xp_94_1 <= 45.1319486144824
 0 <= xp_95_0 <= 35.0330173031907
 0 <= xp_95_1 <= 11.6776724343969
 0 <= xp_95_2 <= 11.6776724343969
 0 <= xp_96_0 <= 87.9083152357602
 0 <= xp_96_1 <= 21.9770788089401
 0 <= xp_97_0 <= 502.190033444879
 0 <= xp_98_0 <= 27.2395492192906
 0 <= xp_98_1 <= 54.4790984385812
 0 <= xp_98_2 <= 27.2395492192906
 0 <= xp_98_3 <= 27.2395492192906
 0 <= xp_99_0 <= 3.11989317185067
 0 <= xp_99_1 <= 9.35967951555201
 0 <= xp_99_2 <= 3.11989317185067
 0 <= xp_100_0 <= 479.198049628228
 0 <= xp_101_0 <= 238.064137611095
 0 <= xp_102_0 <= 71.4192412833286
 0 <= xp_103_0 <= 1371.75062029804
 0 <= xp_104_0 <= 100.538244220602
 0 <= xp_104_1 <= 25.1345610551504
 0 <= xp_105_0 <= 1105.11878617361
 0 <= xp_105_1 <= 276.279696543403
 0 <= xp_106_0 <= 7.89370561552579
 0 <= xp_106_1 <= 31.5748224621032
 0 <= xp_107_0 <= 428.515447699972
 0 <= xp_108_0 <= 485.387717206117
 0 <= xp_108_1 <= 323.591811470745
 0 <= xp_109_0 <= 552.634571235525
 0 <= xp_109_1 <= 368.42304749035
 0 <= xp_110_0 <= 126.925774421073
 0 <= xp_111_0 <= 2229.48317841936
 0 <= xp_111_1 <= 557.37079460484
 0 <= xp_112_0 <= 2676.22932718376
 0 <= xp_112_1 <= 1784.15288478917
 0 <= xp_113_0 <= 405.335518511523
 0 <= xp_114_0 <= 2284.66393957932
 0 <= xp_115_0 <= 168.399053131217
 0 <= xp_115_1 <= 42.0997632828042
 0 <= xp_116_0 <= 121.738482159442
 0 <= xp_116_1 <= 30.4346205398605
 0 <= xp_117_0 <= 1851.57515449893
 0 <= xp_118_0 <= 3005.87297962641
 0 <= xp_119_0 <= 35.8975660134625
 0 <= xp_119_1 <= 11.9658553378208
 0 <= xp_119_2 <= 11.9658553378208
 0 <= xp_120_0 <= 1653.81903429283
 0 <= xp_120_1 <= 413.454758573206
 0 <= xp_121_0 <= 71.9830773987233
 0 <= xp_122_0 <= 2167.44867603449
 0 <= xp_123_0 <= 489.597693534397
 0 <= xp_124_0 <= 131.185869515167
 0 <= xp_125_0 <= 20.7992878123378
 0 <= xp_125_1 <= 5.19982195308445
 0 <= xp_126_0 <= 4836.34813371812
 0 <= xp_126_1 <= 9672.69626743624
 0 <= xp_126_2 <= 9672.69626743624
 0 <= xp_127_0 <= 329.76894935718
 0 <= xp_127_1 <= 219.84596623812
 0 <= xp_128_0 <= 154.791808213025
 0 <= xp_128_1 <= 232.187712319537
 0 <= xp_129_0 <= 37.3384805305823
 0 <= xp_129_1 <= 9.33462013264558
 0 <= xp_130_0 <= 384.598879156451
 0 <= xp_131_0 <= 146.309207099198
 0 <= xp_131_1 <= 292.618414198396
 0 <= xp_131_2 <= 292.618414198396

End
